* ENCODING=ISO-8859-1
NAME          CPLEX
ROWS
 N  obj1    
 G  c1      
 G  c2      
 G  c3      
 G  c4      
 G  c5      
 G  c6      
 G  c7      
 G  c8      
 G  c9      
 G  c10     
 G  c11     
 G  c12     
 G  c13     
 G  c14     
 G  c15     
 G  c16     
 G  c17     
 G  c18     
 G  c19     
 G  c20     
 G  c21     
 G  c22     
 G  c23     
 G  c24     
 G  c25     
 G  c26     
 G  c27     
 G  c28     
 G  c29     
 G  c30     
 G  c31     
 G  c32     
 G  c33     
 G  c34     
 G  c35     
 G  c36     
 G  c37     
 G  c38     
 G  c39     
 G  c40     
COLUMNS
    MARK0000  'MARKER'                 'INTORG'
    x1        obj1                            1
    x1        c15                           942
    x1        c32                           367
    x2        obj1                            1
    x2        c3                            184
    x2        c12                           696
    x2        c16                           299
    x3        obj1                            1
    x3        c12                           890
    x3        c27                           493
    x3        c30                           754
    x3        c32                           926
    x4        obj1                            1
    x4        c7                            504
    x4        c10                           309
    x4        c14                           709
    x4        c17                           806
    x4        c31                           384
    x4        c39                           238
    x5        obj1                            1
    x5        c1                            159
    x5        c2                            403
    x5        c8                            863
    x5        c10                           820
    x5        c14                           802
    x5        c25                           857
    x5        c39                           363
    x6        obj1                            1
    x6        c8                            567
    x6        c14                           689
    x6        c18                           179
    x6        c37                           696
    x7        obj1                            1
    x7        c19                           722
    x7        c26                           144
    x8        obj1                            1
    x8        c13                           935
    x8        c16                           335
    x8        c32                           990
    x8        c34                           842
    x8        c38                           169
    x9        obj1                            1
    x9        c2                            700
    x9        c17                           268
    x9        c26                           638
    x9        c30                           782
    x9        c37                           275
    x10       obj1                            1
    x10       c13                           621
    x10       c21                           360
    x10       c30                           354
    x10       c33                           154
    x11       obj1                            1
    x11       c3                            792
    x11       c15                           190
    x11       c18                           530
    x11       c33                           906
    x12       obj1                            1
    x12       c26                           707
    x12       c34                           319
    x13       obj1                            1
    x13       c3                            931
    x13       c15                           306
    x13       c35                           396
    x13       c36                           613
    x14       obj1                            1
    x14       c9                            802
    x14       c12                           158
    x14       c17                           402
    x14       c36                           823
    x15       obj1                            1
    x15       c1                            964
    x15       c27                           817
    x15       c38                           687
    x16       obj1                            1
    x16       c6                            125
    x16       c7                            656
    x16       c13                           844
    x16       c17                           563
    x17       obj1                            1
    x17       c1                            900
    x17       c13                           201
    x17       c17                           113
    x17       c35                           110
    x18       obj1                            1
    x18       c4                            918
    x18       c6                            167
    x18       c26                           785
    x18       c27                           935
    x19       obj1                            1
    x19       c3                            167
    x19       c33                           257
    x19       c35                           530
    x19       c38                           417
    x19       c39                           995
    x20       obj1                            1
    x20       c38                           512
    x21       obj1                            1
    x21       c1                            426
    x21       c11                           328
    x21       c30                           669
    x21       c32                           608
    x22       obj1                            1
    x22       c26                           659
    x22       c30                           730
    x22       c33                           323
    x22       c37                           552
    x23       obj1                            1
    x23       c10                           860
    x23       c26                           666
    x23       c39                           341
    x24       obj1                            1
    x24       c10                           917
    x24       c24                           566
    x24       c28                           758
    x24       c35                           984
    x25       obj1                            1
    x25       c7                            289
    x25       c12                           244
    x25       c29                           188
    x26       obj1                            1
    x26       c5                            524
    x26       c12                           866
    x26       c36                           136
    x27       obj1                            1
    x27       c1                            796
    x27       c25                           729
    x27       c32                           191
    x27       c33                           831
    x28       obj1                            1
    x28       c1                            119
    x28       c15                           825
    x28       c29                           463
    x29       obj1                            1
    x29       c2                            516
    x29       c11                           842
    x29       c17                           635
    x29       c21                           822
    x29       c23                           536
    x29       c38                           965
    x30       obj1                            1
    x30       c14                           350
    x30       c37                           424
    x31       obj1                            1
    x31       c26                           871
    x31       c33                           901
    x32       obj1                            1
    x32       c3                            158
    x32       c14                           729
    x32       c25                           961
    x32       c27                           420
    x32       c40                           132
    x33       obj1                            1
    x33       c7                            733
    x33       c10                           420
    x33       c14                           915
    x33       c16                           979
    x33       c22                           650
    x34       obj1                            1
    x34       c3                            327
    x34       c11                           584
    x34       c32                           312
    x34       c34                           877
    x35       obj1                            1
    x35       c4                            451
    x35       c11                           689
    x35       c18                           291
    x35       c24                           193
    x36       obj1                            1
    x36       c17                           527
    x36       c25                           284
    x36       c30                           551
    x37       obj1                            1
    x37       c18                           365
    x38       obj1                            1
    x38       c8                            638
    x38       c38                           631
    x39       obj1                            1
    x39       c2                            268
    x39       c16                           674
    x39       c23                           322
    x39       c25                           350
    x39       c27                           218
    x39       c33                           352
    x40       obj1                            1
    x40       c3                            475
    x41       obj1                            1
    x41       c1                            990
    x41       c29                           974
    x41       c31                           873
    x41       c33                           285
    x42       obj1                            1
    x42       c6                            889
    x42       c8                            346
    x42       c18                           219
    x42       c19                           787
    x42       c20                           909
    x42       c31                           198
    x42       c33                           452
    x43       obj1                            1
    x43       c11                           691
    x43       c17                           495
    x43       c24                           704
    x43       c31                           899
    x43       c32                           159
    x44       obj1                            1
    x44       c12                           269
    x44       c18                           356
    x44       c22                           278
    x45       obj1                            1
    x45       c2                            731
    x45       c9                            568
    x45       c13                           264
    x45       c18                           957
    x45       c38                           938
    x45       c39                           393
    x46       obj1                            1
    x46       c16                           207
    x46       c20                           677
    x46       c37                           633
    x47       obj1                            1
    x47       c2                            624
    x47       c3                            247
    x47       c7                            199
    x47       c26                           926
    x47       c28                           932
    x47       c38                           731
    x48       obj1                            1
    x48       c4                            323
    x48       c6                            851
    x48       c18                           277
    x48       c21                           605
    x49       obj1                            1
    x49       c1                            934
    x49       c23                           492
    x49       c29                           924
    x49       c39                           708
    x50       obj1                            1
    x50       c14                           144
    x50       c22                           187
    x50       c40                           236
    x51       obj1                            1
    x51       c7                            118
    x51       c23                           332
    x51       c30                           175
    x51       c37                           462
    x52       obj1                            1
    x52       c29                           503
    x53       obj1                            1
    x53       c1                            947
    x53       c7                            676
    x53       c11                           698
    x53       c26                           400
    x54       obj1                            1
    x54       c19                           401
    x54       c27                           618
    x54       c39                           858
    x55       obj1                            1
    x55       c8                            716
    x55       c11                           588
    x55       c18                           976
    x55       c20                           499
    x55       c26                           888
    x55       c29                           547
    x55       c34                           508
    x56       obj1                            1
    x56       c11                           886
    x56       c25                           232
    x57       obj1                            1
    x57       c6                            732
    x57       c7                            364
    x57       c10                           811
    x57       c11                           907
    x57       c18                           911
    x57       c36                           492
    x57       c40                           762
    x58       obj1                            1
    x58       c5                            832
    x58       c8                            712
    x58       c14                           638
    x58       c19                           217
    x58       c37                           348
    x59       obj1                            1
    x59       c2                            215
    x59       c28                           677
    x60       obj1                            1
    x60       c6                            853
    x60       c26                           495
    x60       c29                           580
    x60       c32                           582
    x60       c37                           376
    x61       obj1                            1
    x61       c4                            462
    x61       c18                           848
    x61       c22                           474
    x61       c27                           322
    x61       c33                           497
    x62       obj1                            1
    x62       c7                            209
    x62       c12                           211
    x62       c16                           932
    x63       obj1                            1
    x63       c2                            457
    x63       c5                            212
    x63       c6                            839
    x63       c9                            363
    x63       c12                           984
    x63       c13                           872
    x63       c21                           209
    x63       c28                           550
    x63       c38                           437
    x64       obj1                            1
    x64       c1                            400
    x64       c11                           891
    x64       c25                           110
    x64       c31                           241
    x64       c33                           935
    x65       obj1                            1
    x65       c10                           239
    x65       c13                           417
    x65       c27                           413
    x65       c29                           152
    x65       c40                           431
    x66       obj1                            1
    x66       c6                            805
    x66       c8                           1000
    x67       obj1                            1
    x67       c9                            846
    x67       c13                           433
    x67       c37                           179
    x68       obj1                            1
    x68       c1                            488
    x68       c20                           481
    x68       c28                           581
    x68       c36                           353
    x68       c37                           632
    x69       obj1                            1
    x69       c2                            212
    x69       c9                            395
    x69       c21                           169
    x69       c27                           409
    x69       c31                           949
    x69       c37                           378
    x69       c39                           540
    x70       obj1                            1
    x70       c3                            742
    x70       c9                            496
    x70       c20                           484
    x70       c29                           572
    x70       c35                           237
    x71       obj1                            1
    x71       c1                            281
    x71       c7                            106
    x71       c22                           144
    x71       c32                           869
    x72       obj1                            1
    x72       c17                           237
    x72       c31                           918
    x73       obj1                            1
    x73       c5                            213
    x73       c15                           500
    x73       c25                           311
    x73       c28                           281
    x74       obj1                            1
    x74       c2                            449
    x74       c19                           898
    x74       c24                           955
    x74       c25                          1000
    x74       c27                           672
    x74       c29                           765
    x74       c35                           159
    x75       obj1                            1
    x75       c5                            489
    x75       c13                           345
    x75       c15                           608
    x75       c26                           525
    x76       obj1                            1
    x76       c15                           891
    x76       c25                          1000
    x76       c27                           304
    x76       c37                           554
    x76       c38                           211
    x76       c39                           152
    x77       obj1                            1
    x77       c14                           847
    x77       c19                           233
    x77       c33                           840
    x78       obj1                            1
    x78       c2                            227
    x78       c4                            929
    x78       c32                           399
    x79       obj1                            1
    x79       c2                            899
    x79       c13                           327
    x79       c21                           824
    x79       c24                           919
    x79       c28                           776
    x79       c34                           984
    x80       obj1                            1
    x80       c3                            866
    x80       c4                            710
    x80       c6                            536
    x80       c8                            928
    x80       c24                           479
    x80       c32                           364
    MARK0001  'MARKER'                 'INTEND'
RHS
    rhs       c1                           3702
    rhs       c2                           2851
    rhs       c3                           2445
    rhs       c4                           1897
    rhs       c5                           1135
    rhs       c6                           2899
    rhs       c7                           1927
    rhs       c8                           2885
    rhs       c9                           1735
    rhs       c10                          2188
    rhs       c11                          3552
    rhs       c12                          2159
    rhs       c13                          2630
    rhs       c14                          2912
    rhs       c15                          2131
    rhs       c16                          1713
    rhs       c17                          2023
    rhs       c18                          2955
    rhs       c19                          1629
    rhs       c20                          1525
    rhs       c21                          1495
    rhs       c22                           867
    rhs       c23                           841
    rhs       c24                          1908
    rhs       c25                          2917
    rhs       c26                          3852
    rhs       c27                          2811
    rhs       c28                          2278
    rhs       c29                          2834
    rhs       c30                          2008
    rhs       c31                          2231
    rhs       c32                          2884
    rhs       c33                          3367
    rhs       c34                          1765
    rhs       c35                          1208
    rhs       c36                          1209
    rhs       c37                          2755
    rhs       c38                          2849
    rhs       c39                          2294
    rhs       c40                           781
BOUNDS
 LI bnd       x1        0
 LI bnd       x2        0
 LI bnd       x3        0
 LI bnd       x4        0
 LI bnd       x5        0
 LI bnd       x6        0
 LI bnd       x7        0
 LI bnd       x8        0
 LI bnd       x9        0
 LI bnd       x10       0
 LI bnd       x11       0
 LI bnd       x12       0
 LI bnd       x13       0
 LI bnd       x14       0
 LI bnd       x15       0
 LI bnd       x16       0
 LI bnd       x17       0
 LI bnd       x18       0
 LI bnd       x19       0
 LI bnd       x20       0
 LI bnd       x21       0
 LI bnd       x22       0
 LI bnd       x23       0
 LI bnd       x24       0
 LI bnd       x25       0
 LI bnd       x26       0
 LI bnd       x27       0
 LI bnd       x28       0
 LI bnd       x29       0
 LI bnd       x30       0
 LI bnd       x31       0
 LI bnd       x32       0
 LI bnd       x33       0
 LI bnd       x34       0
 LI bnd       x35       0
 LI bnd       x36       0
 LI bnd       x37       0
 LI bnd       x38       0
 LI bnd       x39       0
 LI bnd       x40       0
 LI bnd       x41       0
 LI bnd       x42       0
 LI bnd       x43       0
 LI bnd       x44       0
 LI bnd       x45       0
 LI bnd       x46       0
 LI bnd       x47       0
 LI bnd       x48       0
 LI bnd       x49       0
 LI bnd       x50       0
 LI bnd       x51       0
 LI bnd       x52       0
 LI bnd       x53       0
 LI bnd       x54       0
 LI bnd       x55       0
 LI bnd       x56       0
 LI bnd       x57       0
 LI bnd       x58       0
 LI bnd       x59       0
 LI bnd       x60       0
 LI bnd       x61       0
 LI bnd       x62       0
 LI bnd       x63       0
 LI bnd       x64       0
 LI bnd       x65       0
 LI bnd       x66       0
 LI bnd       x67       0
 LI bnd       x68       0
 LI bnd       x69       0
 LI bnd       x70       0
 LI bnd       x71       0
 LI bnd       x72       0
 LI bnd       x73       0
 LI bnd       x74       0
 LI bnd       x75       0
 LI bnd       x76       0
 LI bnd       x77       0
 LI bnd       x78       0
 LI bnd       x79       0
 LI bnd       x80       0
ENDATA
